
; Scheduling constraints for 10 jobs with an extra constraint: job 7 not starting before job 8

(declare-fun T () Int)

(declare-fun S1 () Int)
(declare-fun E1 () Int)
(assert (>= S1 0))
(assert (= E1 (+ S1 11)))
(assert (<= E1 T))
(declare-fun S2 () Int)
(declare-fun E2 () Int)
(assert (>= S2 0))
(assert (= E2 (+ S2 12)))
(assert (<= E2 T))
(declare-fun S3 () Int)
(declare-fun E3 () Int)
(assert (>= S3 0))
(assert (= E3 (+ S3 13)))
(assert (<= E3 T))
(declare-fun S4 () Int)
(declare-fun E4 () Int)
(assert (>= S4 0))
(assert (= E4 (+ S4 14)))
(assert (<= E4 T))
(declare-fun S5 () Int)
(declare-fun E5 () Int)
(assert (>= S5 0))
(assert (= E5 (+ S5 15)))
(assert (<= E5 T))
(declare-fun S6 () Int)
(declare-fun E6 () Int)
(assert (>= S6 0))
(assert (= E6 (+ S6 16)))
(assert (<= E6 T))
(declare-fun S7 () Int)
(declare-fun E7 () Int)
(assert (>= S7 0))
(assert (= E7 (+ S7 17)))
(assert (<= E7 T))
(declare-fun S8 () Int)
(declare-fun E8 () Int)
(assert (>= S8 0))
(assert (= E8 (+ S8 18)))
(assert (<= E8 T))
(declare-fun S9 () Int)
(declare-fun E9 () Int)
(assert (>= S9 0))
(assert (= E9 (+ S9 19)))
(assert (<= E9 T))
(declare-fun S10 () Int)
(declare-fun E10 () Int)
(assert (>= S10 0))
(assert (= E10 (+ S10 20)))
(assert (<= E10 T))


; Dependencies
(assert (>= S3 E1))
(assert (>= S3 E2))
(assert (>= S6 E2))
(assert (>= S6 E4))
(assert (>= S7 E1))
(assert (>= S7 E4))
(assert (>= S7 E5))
(assert (>= S8 E3))
(assert (>= S8 E6))
(assert (>= S9 E6))
(assert (>= S9 E7))
(assert (>= S10 E8))
(assert (>= S10 E9))


(assert (>= S7 S8))


(minimize T)
(check-sat)
(get-model)
(exit)
